&GLOBAL
  PROJECT H2O-64
  RUN_TYPE MD
#  PRINT_LEVEL LOW
&END GLOBAL

&EXT_RESTART ON
  RESTART_DEFAULT F
  RESTART_POS T
  RESTART_VEL T
  RESTART_FILE_NAME H2O-64-1_hfnvt.restart
&END

&FORCE_EVAL
  METHOD         Quickstep
  &DFT
    RESTART_FILE_NAME H2O-64-RESTART_hfnvt.wfn
    &MGRID
      CUTOFF    300
    &END MGRID
    &QS
      METHOD GPW
      EPS_DEFAULT  1.0E-7
      EPS_PGF_ORB  1.0E-7
    &END QS
    &SCF
      SCF_GUESS RESTART
      EPS_SCF 1.0E-7
      MAX_SCF 40
      &OT
        MINIMIZER       DIIS
        PRECONDITIONER  FULL_SINGLE_INVERSE
      &END
      &OUTER_SCF
        EPS_SCF 1.0E-7
        MAX_SCF 10
      &END
    &END SCF

    &EFIELD
        INTENSITY  0.000
    &END
    &POISSON
      PERIODIC XYZ
    &END POISSON

    &XC
     &XC_FUNCTIONAL NONE
     &END
     &HF
          FRACTION    1.0
          &SCREENING
            EPS_SCHWARZ          1.0E-10
          &END SCREENING
          &INTERACTION_POTENTIAL
          ! for condensed phase systems
          POTENTIAL_TYPE TRUNCATED
          ! should be less than half the cell
          CUTOFF_RADIUS  6.0
          ! data file needed with the truncated operator
          T_C_G_DATA /home/shiota/CP2K/cp2k_8.2_qs_v1_10c/data/t_c_g.dat
          &END INTERACTION_POTENTIAL
          &MEMORY
          ! In MB per MPI rank.. use as much as need to get in-core operation
          MAX_MEMORY 7000
          ! additional accuracy for storing compressed results
          EPS_STORAGE_SCALING 0.1
          &END          
     &END
    &END XC

    &PRINT
     &MOMENTS
        PERIODIC TRUE
     &END
     &E_DENSITY_CUBE OFF
     &END E_DENSITY_CUBE
     &ACTIVE_SPACE
       ACTIVE_ORBITALS_ALIST 255 256 257 258
       ACTIVE_ORBITALS 4
       ACTIVE_ELECTRONS 4
       &ERI
         METHOD FULL_GPW
       &END
       &ERI_GPW
         CUTOFF 300
       &END
       &FCIDUMP
         FILENAME test
       &END FCIDUMP
       ACTIVE_SPACE_SOLVER ./fci-aimd.sh
     &END
    &END
  &END DFT

  &PRINT
     &FORCES ON
     &END FORCES
  &END PRINT

  &SUBSYS
    &CELL
      ABC 12.4138  12.4138  12.4138
    &END CELL
  # 128 H2O (TIP5P,1bar,300K) a = 15.6404
    &COORD
# NVT 20 ps within q-SPC/Fw at 300K in box 12.4138 12.4138 12.4138 
O  7.9173466887174015  6.898041014566621  2.228548546238194
H  8.242620719890162  6.395128999018272  3.0514125453298853
H  8.188677324270856  7.875742581492475  2.331489839018669
O  6.557157523130499  3.765812122555312  1.6687499960168886
H  5.664480662203474  4.218828844019557  1.807589335766389
H  7.008972890987771  3.982025026916011  2.555584224259288
O  6.56433387852552  1.789825192381393  4.669259518242616
H  7.448595783916858  1.372915559177926  4.320911238805493
H  6.649906809357375  2.0344395788447898  5.650998695520753
O  10.901436126144997  0.7820134919413271  0.9268856380221209
H  11.5892238199847  1.064534345901199  0.24068214828458068
H  10.34023564441512  1.5926607944656281  1.1844042681390086
O  5.798056598236286  3.9631783556721434  9.437891161949201
H  6.622560725931827  3.479831080984507  9.559922161324232
H  5.879812385051913  4.898495755260095  9.853951131809076
O  4.77807368096428  1.0634053573426385  2.5518380462012935
H  5.484580979769955  0.9640994692587253  1.843584559377982
H  5.387557924506826  1.346333177712543  3.350902313692246
O  3.7385382371244518  5.584517521792941  11.326886817172273
H  3.907884070673049  6.548356193024139  11.468311579254296
H  4.104949497520103  5.051677752844276  12.122905913978121
O  3.238410994186765  11.166557441612117  3.38734950348344
H  3.6907931420681948  10.98050390837361  4.337474057595896
H  3.609860021383959  12.063797337132852  3.1032205262059502
O  11.257115684100965  4.883338234352915  10.177672297068861
H  12.262474996492475  4.949930783414086  10.328555050445019
H  11.147261464889175  4.153171355480538  9.505574130226345
O  9.646622423774412  4.255809757098252  6.869570237380243
H  8.868123127112588  3.6505758962350203  7.100082341775421
H  9.325153196141999  5.197962289687572  6.844489604879017
O  12.23244177189223  3.2948400787490497  5.5954706710096564
H  12.017251203553418  3.7304754625072922  4.710511215095262
H  11.503309717639578  3.5847979336579328  6.236630527647961
O  11.769203958060544  0.36190930103766616  3.4304289422714547
H  12.411967182991166  -0.4396588018569681  3.4079124508173138
H  11.527486233912517  0.5702972230770326  2.436333799570768
O  1.6137297086001148  4.553015735431969  9.96814529159791
H  2.1526785992848687  5.179079714800008  10.596456680100157
H  2.3602819766084018  4.411344666102955  9.279705185007764
O  0.7475408558860934  12.620849637466316  11.280097065054141
H  1.0574605134654576  12.069572245061494  12.029390157741913
H  -0.03617155918474424  12.183978418361104  10.839756272740237
O  10.673199116101625  7.752654894439839  4.522401934384329
H  10.106968257552406  7.617353833664211  5.398323278007667
H  10.070158631711454  8.345961837100145  3.9709521990796746
O  5.826933671097883  6.58851066515886  0.6150645574085534
H  6.635997713327811  6.649239939725395  1.2777714047484618
H  6.254052713561585  6.845777707005402  -0.2909166801062959
O  4.4169637677817875  8.411027234207145  9.745619093754087
H  3.995880785414556  9.238001321891202  10.120982976068028
H  3.5940479056372574  7.9613550758396325  9.294801357655508
O  0.8098974882413263  8.381552649156509  5.135283412137387
H  1.489086832303993  7.638923376260331  5.193870330512969
H  -0.1209855394910821  8.102847613766269  4.7851619835196635
O  11.318472464364614  10.953699188795085  7.6115605582831405
H  11.865524305047888  11.642073736486374  7.008661009964886
H  10.676402731844956  11.414649615405912  8.289189009790844
O  9.497139102656885  10.98166079394492  0.9523375793010419
H  8.518971338107905  11.132944937729773  0.6352124407724357
H  10.010299275525993  11.845428829563508  0.9067481358682434
O  11.777013183728124  4.776626032074598  3.250985566649298
H  12.708444340731957  5.141848189112138  2.989971748549916
H  11.240685460112063  5.571859145195635  2.8050451934378398
O  8.970518043743533  0.511084653749105  3.660234410143294
H  9.906031255239549  0.1312996625981171  3.592670043407609
H  9.211387632786046  1.4929483956018998  3.425703769810517
O  6.853092578544523  11.98619869853863  9.89303338152039
H  6.250860223458421  12.775467349247025  9.979495374508158
H  6.505802959337689  11.263493494388022  9.212724606055133
O  3.4221721797695555  10.859437844420487  11.35658677590901
H  4.0207419814544405  10.494719062329253  12.081064394778382
H  2.504118214940762  10.822897630321389  11.781821399232959
O  7.972300983118959  2.4060324010420473  9.78687953037648
H  8.657849287225165  1.6403633104436395  9.770814076539597
H  8.087713364591952  2.5132051253391587  10.825927595812713
O  9.315892761916349  5.740362181072059  11.85484279405036
H  9.999165128118683  5.654567259948218  11.131669357937152
H  8.513219220414616  6.054837377760439  11.533544593122304
O  0.6887817922922039  10.473198767090654  3.4538495922471326
H  0.6209728564493986  9.883995810903759  4.281691194447226
H  1.696712619177763  10.533749950482433  3.2430399487722763
O  6.8654870673811494  6.874421873861362  10.456500336385158
H  5.9760587230425095  7.252398715167523  10.214476856696056
H  7.5001793776213255  7.3606740232039485  9.831021236658888
O  0.7060445646968176  9.064612347876373  7.584580744850728
H  0.9916155984220438  8.953053674439925  6.626331913404707
H  0.09312884277011335  9.913347637830935  7.6101203953684
O  8.923563374312598  9.17218994584171  2.7372891023170522
H  9.221539474152681  9.749755205662028  1.8821640369482358
H  8.55217478824299  9.832855708668946  3.396044845320171
O  5.75185654407457  10.11531742912997  8.02156170844673
H  6.294286711288432  9.487074634423369  7.464788493364159
H  5.262557603598626  9.512809318540855  8.677720492595748
O  4.518208821810916  7.808290204686697  4.546315652368532
H  4.457803434726291  7.736896830233297  3.516533774410769
H  3.550040736786368  7.609153245505686  4.805961892859218
O  8.825906704784693  10.098318251329259  7.3168653873329
H  8.168656814319188  10.396387336091086  6.596526297690655
H  9.785829866046463  10.373327534840644  7.18667813216074
O  12.622652853122558  7.984192265937381  12.165568020171984
H  12.269132683784122  7.735338757705147  11.257026703834933
H  12.074144521686463  7.416603186077207  12.839139394294259
O  2.386673241099352  6.126654730659983  5.383495613181544
H  2.4145885886710943  6.049469503510952  4.390993652545717
H  1.6834011456610156  5.529638716744128  5.727279422547435
O  7.5408382128155385  10.651765589649324  4.5202172420469315
H  6.5854472763115  10.948597281143101  4.371447452700156
H  8.18418732057303  11.32306468321036  4.140307150079217
O  9.57844736812361  12.571763666102905  9.620616650831613
H  10.142396623509033  12.0739677017502  10.365268154553268
H  8.642605952561755  12.352984163298919  9.786109422846858
O  4.8325783637052915  1.6197820000339629  10.356222972740172
H  3.9064684162349543  1.910223236890893  10.703808531988846
H  5.199481286232121  2.4288614346092015  9.908112691533317
O  9.706612112461313  2.882306413966555  3.0069143864523618
H  10.381353502500426  3.6967307313211304  2.9706213768094702
H  8.953199559403151  3.3050454167526038  3.5770171718242576
O  3.503405903294265  3.3963625539394524  1.4979743414990683
H  3.1960403903065373  3.1123904080338  0.5719658600262232
H  3.8797277092962243  2.56025086852879  1.9574005750289327
O  1.1866559122641789  10.18352706557242  0.5593231239286034
H  0.9475775692759072  10.159135909088175  1.55231901836693
H  0.7714478348198668  9.347907521715229  0.11882393912935285
O  10.838663950347627  6.822602905369644  1.6372916686149397
H  10.37198804559453  7.335195171890829  2.3598892501388824
H  10.051150760571662  6.433154196503802  1.0844444134145261
O  4.793633391768939  11.105239063384902  5.6445416790962835
H  4.03290557462315  11.736821530333742  5.960382926754873
H  5.151858743699126  10.788612904208136  6.531963907318529
O  6.398893928304227  1.6093207979377375  0.2836053211819669
H  5.815548287017341  1.7588071093291209  -0.5522291710208362
H  6.382733950103409  2.4595281113629284  0.903784895787264
O  2.405215276686054  6.995592910263236  8.574817897434716
H  2.700748157456833  6.312652706620881  7.935220965984478
H  1.8577478644364824  7.746747118158643  8.166899817947394
O  3.4395240434485084  4.194221985776144  7.758785890672875
H  4.159349187002827  3.9739684824436523  8.349604254451823
H  3.5237581593011873  3.6632161649938713  6.935174314100113
O  6.763597872068916  11.489013346418155  12.595992796009908
H  6.644765844418343  12.507284314884572  12.742387954234866
H  6.8049508479518295  11.43772733819263  11.631036375275965
O  9.122925051397726  7.86335488277345  8.698198570327635
H  10.021850694920591  7.9497266435894645  9.254942616992361
H  8.860781506277764  8.753277878300324  8.234936818406032
O  2.614597062651402  0.24047978099946873  9.259323023268022
H  3.396457727467771  -0.33346205680558766  9.669668792475177
H  1.9825973618312194  0.23069332492671746  10.031934478693175
O  4.738790511660067  10.046191606249002  1.3718426451637118
H  5.589969775959698  10.498970056770771  1.1366698949994714
H  4.296434231051197  10.469631056730584  2.1849256073432066
O  2.3990719292039415  2.605105094711007  11.583544494345901
H  1.9880135268452932  3.3620729923276187  10.967529357716254
H  1.7931372039758742  1.7933199661049404  11.552151957464057
O  12.212928300376277  0.4806178743412719  5.932503334864702
H  12.391441428922615  1.4448264231000287  5.704174033565764
H  12.040969614650248  0.30619384125505  4.971774772338367
O  7.857404378737371  2.273489315254274  7.147501624838254
H  8.653908067944627  1.697096576127251  6.933373364319733
H  7.71876098822905  2.261157790628644  8.150206076438023
O  8.762660120946483  6.798093986991296  6.353208678875967
H  7.946880170740828  7.451038410132535  6.219397538219932
H  8.98915680308182  7.065024909528701  7.352855020071283
O  6.712744481238187  8.538666231765852  5.962958619468735
H  7.054721050386618  9.326433432929408  5.368079777410234
H  5.849684040211508  8.300624819807748  5.504743762126497
O  11.171565607032196  10.576342937832703  11.075410204674858
H  11.639603874846028  9.774165059721915  10.590302866973465
H  10.951209366919631  10.476257073636349  12.030264153516049
O  3.7488461197697083  7.550662290461104  1.9435115274592487
H  3.7223104472585953  8.552776550040148  1.6152123467828108
H  4.551615077403861  7.184438365556969  1.4904808662649323
O  1.8598722208712886  5.624977337187001  2.5487552473706003
H  2.5279089824726206  4.920135456242908  2.1016468472018133
H  2.178149015810085  6.5151055035416015  2.1359705779216114
O  2.5462812208870034  12.377427921354757  6.56474624878123
H  1.5839133432410897  12.102150778711378  6.274545119574595
H  2.673006057459453  12.636679177212644  7.546046943963418
O  11.73662781441516  7.750862611869318  9.703932269429487
H  11.759300395813382  6.762699491863075  9.456243696849207
H  12.357420541412894  8.353913297605946  9.18010217439036
O  2.511395229188871  2.5249675234757643  5.132003892754957
H  2.7862790966617794  1.681518409902056  5.513104993287216
H  1.4982265126259335  2.6694733005080735  5.307036075084495
O  7.470757107160475  4.651236966830206  4.4079118509352435
H  6.45989550436636  4.617072864230095  4.450154144708457
H  7.6900228765737015  4.992637866271401  5.295063143959676
O  9.159876496182552  3.1871776850524896  12.303527028813816
H  8.317919477828365  3.414507152945445  12.756699230516446
H  9.566417482558553  4.093666410776372  12.10775974954263
O  4.541146410125206  4.519854872872673  4.930820790498595
H  4.110696908510855  5.294168703231228  5.423276809318216
H  3.766991692004874  3.8959538254863926  4.77931078139485
    &END COORD
    &TOPOLOGY
      &CENTER_COORDINATES
      &END
    &END TOPOLOGY
    &KIND H
      BASIS_SET         6-31G*
      POTENTIAL         GTH-HF-q1
    &END KIND
    &KIND O
      BASIS_SET         6-31G*
      POTENTIAL         GTH-HF-q6
    &END KIND
  &END SUBSYS
&END FORCE_EVAL
&MOTION
  &MD
    ENSEMBLE NVE
    STEPS 1000
    TIMESTEP 0.5
    TEMPERATURE 300.0
#    &THERMOSTAT
#       TYPE CSVR
#       &CSVR
#          TIMECON 50
#       &END CSVR
#    &END
  &END MD
&END MOTION

