 # Version information for this restart file 
 # current date 2022-11-13 22:38:33.689
 # current working dir /home/shiota/CP2K/cp2k_QSimulate/work/2_NEW_PGM/WAT_fAmb_64_10ps/5_HF_CSVR
 # Program compiled at                2022年  7月 26日 火曜日 17:07:46 JST
 # Program compiled on                                             cpucluster042
 # Program compiled for                                                    local
 # Source code revision number                                       git:310b7ab
 &GLOBAL
   PROJECT_NAME H2O-64
   RUN_TYPE  MD
 &END GLOBAL
 &MOTION
   &MD
     ENSEMBLE  NVT
     STEPS  10000
     TIMESTEP     4.9999999999999994E-01
     STEP_START_VAL  10000
     TIME_START_VAL     4.9999999999994579E+03
     ECONS_START_VAL    -1.0759173819981138E+03
     TEMPERATURE     3.0000000000000000E+02
     &THERMOSTAT
       TYPE  CSVR
       &CSVR
         TIMECON     4.9999999999999993E+01
         &THERMOSTAT_ENERGY
               4.9987754098848197E-01
         &END THERMOSTAT_ENERGY
         &RNG_INIT
Wiener process for Thermostat # 1        1 F T F   1.5072101767997061E+00        1524326887.0         523867855.0        4030984057.0        2116121714.0        1498347422.0        3792078489.0             12345.0             12345.0             12345.0             12345.0             12345.0             12345.0             12345.0             12345.0             12345.0             12345.0             12345.0             12345.0
         &END RNG_INIT
       &END CSVR
     &END THERMOSTAT
     &AVERAGES  T
       &RESTART_AVERAGES
         ITIMES_START  1
         AVECPU     2.8461497719332733E+01
         AVEHUGONIOT     0.0000000000000000E+00
         AVETEMP_BARO     0.0000000000000000E+00
         AVEPOT    -1.0767268637429422E+03
         AVEKIN     2.7826169790464350E-01
         AVETEMP     3.0669455385938818E+02
         AVEKIN_QM     0.0000000000000000E+00
         AVETEMP_QM     0.0000000000000000E+00
         AVEVOL     1.2909542132085831E+04
         AVECELL_A     2.3458682268415640E+01
         AVECELL_B     2.3458682268415640E+01
         AVECELL_C     2.3458682268415640E+01
         AVEALPHA     9.0000000000000000E+01
         AVEBETA     9.0000000000000000E+01
         AVEGAMMA     9.0000000000000000E+01
         AVE_ECONS    -1.5940368746348721E+01
         AVE_PRESS     0.0000000000000000E+00
         AVE_PXX     0.0000000000000000E+00
       &END RESTART_AVERAGES
     &END AVERAGES
   &END MD
 &END MOTION
 &FORCE_EVAL
   METHOD  QS
   &DFT
     WFN_RESTART_FILE_NAME H2O-32-RESTART.wfn
     &SCF
       MAX_SCF  40
       EPS_SCF     9.9999999999999995E-08
       SCF_GUESS  RESTART
       &OT  T
         MINIMIZER  DIIS
         PRECONDITIONER  FULL_SINGLE_INVERSE
       &END OT
       &OUTER_SCF  T
         EPS_SCF     9.9999999999999995E-08
         MAX_SCF  10
       &END OUTER_SCF
     &END SCF
     &QS
       EPS_DEFAULT     9.9999999999999995E-08
       EPS_PGF_ORB     9.9999999999999995E-08
       METHOD  GPW
     &END QS
     &MGRID
       CUTOFF     3.0000000000000000E+02
     &END MGRID
     &XC
       DENSITY_CUTOFF     1.0000000000000000E-10
       GRADIENT_CUTOFF     1.0000000000000000E-10
       TAU_CUTOFF     1.0000000000000000E-10
       &XC_FUNCTIONAL  NONE
       &END XC_FUNCTIONAL
       &HF
         FRACTION     1.0000000000000000E+00
         &SCREENING
           EPS_SCHWARZ     1.0000000000000000E-10
         &END SCREENING
         &INTERACTION_POTENTIAL
           POTENTIAL_TYPE  TRUNCATED
           CUTOFF_RADIUS     6.0000000000000000E+00
           T_C_G_DATA /home/shiota/CP2K/cp2k_8.2_qs_v1_10c/data/t_c_g.dat
         &END INTERACTION_POTENTIAL
       &END HF
     &END XC
     &EFIELD
       INTENSITY     0.0000000000000000E+00
     &END EFIELD
     &POISSON
       PERIODIC  XYZ
     &END POISSON
     &PRINT
       &E_DENSITY_CUBE  OFF
       &END E_DENSITY_CUBE
       &MOMENTS  SILENT
         PERIODIC  T
       &END MOMENTS
     &END PRINT
   &END DFT
   &SUBSYS
     &CELL
       A     1.2413800000000002E+01    0.0000000000000000E+00    0.0000000000000000E+00
       B     0.0000000000000000E+00    1.2413800000000002E+01    0.0000000000000000E+00
       C     0.0000000000000000E+00    0.0000000000000000E+00    1.2413800000000002E+01
       MULTIPLE_UNIT_CELL  1 1 1
     &END CELL
     &COORD
O    8.7533848572561332E+00    6.8716519847951059E+00    3.7306387394277700E+00
H    9.3191501015520206E+00    6.7227763143572554E+00    2.9580146961335916E+00
H    7.9349918909281509E+00    7.2130906908738757E+00    3.4209356427049395E+00
O    6.2365144567923680E+00    3.7607276745057114E+00    3.2164809294606287E+00
H    5.8440460433169843E+00    4.4182120094705732E+00    2.7129366122203176E+00
H    5.5615485257605597E+00    3.2166202980969198E+00    3.6241393528991455E+00
O    4.3622043513953104E+00    2.5642984646278739E+00    5.7312721423413713E+00
H    3.7098732650661597E+00    1.9486368300112762E+00    6.0897931831728735E+00
H    5.1838436597586330E+00    2.2045194591193704E+00    6.0368665897429779E+00
O    1.0883031298289952E+01    3.2557821025121498E+00   -2.4434114478065197E-01
H    1.1437578395390705E+01    3.6454149007726797E+00   -8.8942743758844933E-01
H    1.0127267888605681E+01    3.8242667280776983E+00   -8.2222722388700598E-02
O    4.8356206221256288E+00    4.4922456850889363E+00    7.6934246989913415E+00
H    4.4066273838490160E+00    3.8744518449667940E+00    7.0990189787283882E+00
H    5.3652695421978267E+00    4.9190670521229745E+00    7.0722978670638774E+00
O    1.4989545410752954E+00    1.9402366200115331E-01    2.1112480249479799E+00
H    1.6350435863767290E+00    8.7474087388393917E-01    2.7363931751205728E+00
H    1.0464219840586504E+00   -4.1147567890194631E-01    2.6554750306149759E+00
O    3.4153858318901804E+00    6.8857832759288984E+00    1.1874881313151487E+01
H    3.7612168714632315E+00    7.5446296219105671E+00    1.1265797133305913E+01
H    2.4348106189303160E+00    6.8664993888686174E+00    1.1868784941704774E+01
O    3.9611618206927015E+00    1.0812800119769374E+01    2.9758563661221076E+00
H    4.5733419676918956E+00    1.1191707503836618E+01    2.3338882548798492E+00
H    3.1332396082932719E+00    1.1301150734337496E+01    2.8771411277905381E+00
O    1.0384031953153782E+01    5.0932397823656501E+00    9.0690024774782714E+00
H    1.1333875483110667E+01    5.0548832165290563E+00    9.2001079812500048E+00
H    1.0159253410210946E+01    4.3236664692581623E+00    8.4402392226305452E+00
O    9.5758503632606082E+00    3.0134709120079504E+00    7.0881233585073087E+00
H    9.3909406180606130E+00    2.1696607090132738E+00    7.5135375206410702E+00
H    8.7083164277126528E+00    3.4112785082819701E+00    6.8010926428969052E+00
O    1.1662813594669657E+01    3.0253005375675506E+00    4.9026378362552885E+00
H    1.1378778777417940E+01    3.3318407310681111E+00    3.9843842075066767E+00
H    1.0892822510305294E+01    3.0119224099472266E+00    5.4862763026190642E+00
O    1.1383687419533706E+01    4.9095648522786717E-01    7.1216070767538731E-01
H    1.2315382276385844E+01    7.0420356073629786E-01    8.2351985542615846E-01
H    1.1020449434574399E+01    1.2937725734863239E+00    3.7459953805359969E-01
O    7.0524009533917120E-01    4.6566542215958586E+00    1.0445298784181192E+01
H    4.1693459803932992E-01    5.2075417997217501E+00    1.1183401376027138E+01
H    1.2645380214133009E+00    5.1874924266797446E+00    9.8656917190306377E+00
O   -3.8550817764550049E-01    1.2692914293706171E+01    1.0123257918235588E+01
H   -5.0214486024970240E-01    1.2045913060471056E+01    1.0811659574233868E+01
H    4.1780979709900357E-01    1.2471956038863654E+01    9.6891678747903391E+00
O    1.0605531795342117E+01    6.7985364795673195E+00    5.8022074530764298E+00
H    9.8931434331178245E+00    6.8631558017372534E+00    6.4313993678293002E+00
H    1.0241827753266223E+01    6.9880073435909820E+00    4.9236889051294215E+00
O    5.5096016865662110E+00    5.6860687433016945E+00    1.0077736436020222E+00
H    4.7663736052196608E+00    5.7241401076627971E+00    4.2480359231813147E-01
H    5.7783661782634059E+00    6.5805762809978052E+00    1.0477294406163247E+00
O    4.7782907230854645E+00    8.0973443497964599E+00    9.9198270037698073E+00
H    5.4508568402148603E+00    8.7633585642361549E+00    1.0104592833127453E+01
H    4.0785105178764027E+00    8.5653607683295032E+00    9.4720396807845049E+00
O    2.6170011387228445E+00    8.0843736695004615E+00    5.9519703622049720E+00
H    2.7865578535320439E+00    8.4848894623462581E+00    6.7833284104205207E+00
H    1.9539789233339253E+00    7.4150344456256505E+00    6.1520971834960427E+00
O    1.1538109731767209E+01    1.0874326348724786E+01    7.4527275771155139E+00
H    1.1603250103399072E+01    1.1415858640023233E+01    6.6595422311921055E+00
H    1.1581401904822171E+01    1.1423315557851280E+01    8.2784292660529299E+00
O    1.0030820323929975E+01    9.7381849525418644E+00    1.2850250815780830E+00
H    9.2580897471283752E+00    1.0261063644489159E+01    1.0770896599518249E+00
H    9.9875488088177686E+00    9.6209011582694597E+00    2.2480310275210313E+00
O    1.1292819141625035E+01    4.7008520532367193E+00    2.3933058095631097E+00
H    1.1414208864759392E+01    4.2113380568538794E+00    1.5624718712441719E+00
H    1.1615566511287724E+01    5.6322423425730967E+00    2.3085404585238960E+00
O    9.7458239534552469E+00   -1.0965734797085458E-01    2.6989358485318884E+00
H    1.0258030142100163E+01   -2.0579504391494577E-01    1.9003352628415739E+00
H    9.5321096275228392E+00    8.0652091670566339E-01    2.7372488669173181E+00
O    7.2688976774040395E+00    1.2371684954711521E+01    1.0477693621414318E+01
H    7.5447757045774635E+00    1.2910511574217484E+01    1.1233961615682041E+01
H    6.6974364157771094E+00    1.2928598423104420E+01    1.0019192995583541E+01
O    4.1799578492285798E+00    1.0802552199086580E+01    1.1178680247149591E+01
H    4.1135450232022723E+00    1.1759302574700607E+01    1.1290561506855532E+01
H    3.4675769865451396E+00    1.0484796919849769E+01    1.1739123969402149E+01
O    7.1663207673571048E+00    3.0467903718778171E+00    9.7666589704017905E+00
H    7.5289515408009615E+00    3.2938064320378326E+00    1.0649085896445222E+01
H    6.8630915949487408E+00    3.9174604711207914E+00    9.4550280195968242E+00
O    8.7273140839414758E+00    5.0548550803530024E+00    1.1591202511260988E+01
H    9.2512166959042332E+00    5.0842482786197083E+00    1.0800831759519681E+01
H    7.8694508340045726E+00    5.3415874467819151E+00    1.1275894205651662E+01
O    3.8653857936627928E-01    9.6797217161539653E+00    4.1410529997831125E+00
H   -5.6291824951941238E-01    9.7001456918950382E+00    4.2217979545571298E+00
H    6.0737910507035830E-01    8.7688222640293283E+00    3.8931094554333692E+00
O    6.7903683620447177E+00    6.0089124107226768E+00    9.6721243931851308E+00
H    5.8307161645264127E+00    6.3032436659378357E+00    9.6713009503945386E+00
H    7.2361867435281129E+00    6.3490458488096779E+00    8.9177445364429904E+00
O   -1.5802532828248822E-01    8.2814134330886127E+00    7.4965839016296014E+00
H   -5.7249668340298876E-01    7.8909530746536056E+00    6.7320236638528685E+00
H   -4.1646249181433020E-01    9.2146239022814544E+00    7.4920882233682002E+00
O    9.7823312031339231E+00    9.6019916877521663E+00    4.2999875722906493E+00
H    9.3680911099789039E+00    1.0360474666779705E+01    4.6556187364795001E+00
H    9.1801971157242015E+00    8.8706202270327541E+00    4.3854214945156258E+00
O    5.7522262526474481E+00    1.0733612156823153E+01    8.4899025946805242E+00
H    6.6836929537464833E+00    1.0622750435903525E+01    8.2745833329411909E+00
H    5.6117631901318630E+00    1.0607968701059436E+01    9.4613256922446354E+00
O    4.7415673291949103E+00    6.5396419244618347E+00    5.0279092370245788E+00
H    4.8682069687396945E+00    6.3954107079879883E+00    4.1098573512898735E+00
H    3.9181844441189559E+00    7.0897928266121655E+00    5.0924314004798807E+00
O    8.5427664153703837E+00    1.0743841760099269E+01    7.4235469563590808E+00
H    9.1804270069181459E+00    1.0041221085307370E+01    7.2635633640487418E+00
H    9.1554185394210563E+00    1.1462131184645624E+01    7.5469861248051435E+00
O    1.2691536599373688E+01    6.5242213572555032E+00    1.2553318010455250E+01
H    1.1770279032894688E+01    6.6776918332282555E+00    1.2729454600969317E+01
H    1.3010000708871134E+01    6.5593781151715875E+00    1.3425564066649761E+01
O    6.6146767131259154E-01    5.4150115826649623E+00    6.2621353253512320E+00
H    8.4465170786660226E-01    4.7898915611512800E+00    5.5974659052138263E+00
H   -2.5600460124667923E-01    5.7038632266375302E+00    6.2548479225963005E+00
O    6.8864627841484909E+00    1.2708455082412751E+01    3.5933826638761208E+00
H    7.7611161899670167E+00    1.2347969028894855E+01    3.3842387019283819E+00
H    6.3594543747635974E+00    1.2104317835404821E+01    4.1355392152314430E+00
O    9.5523275021593648E+00    1.3149327943392594E+01    8.5600000748046696E+00
H    1.0465976925461808E+01    1.3110932356628680E+01    8.9523773722591677E+00
H    8.9551695212476119E+00    1.2888437567491390E+01    9.2715755071379675E+00
O    4.6032328382826133E+00    1.3838187869935294E+00    1.0493729603747514E+01
H    3.8545183245071621E+00    1.8791258098588981E+00    1.0732356536375223E+01
H    5.1784824962008775E+00    2.0646929764998005E+00    1.0226528739412299E+01
O    8.9953584063741445E+00    2.8813454338728333E+00    2.5498612502744238E+00
H    9.3900121542887707E+00    3.7498089958008638E+00    2.5393577240309333E+00
H    8.0976681223850058E+00    3.1459648882438427E+00    2.8004749386549030E+00
O    3.5225006918244031E+00    3.5291447758297290E+00    1.0819188587816966E+00
H    2.9003367008823835E+00    3.0126680629957403E+00    5.9566963918576477E-01
H    2.9577714636141237E+00    3.9731468051364329E+00    1.7150580575717160E+00
O    2.0502427659340556E+00    1.0045767206029129E+01    2.6491261355253831E-01
H    2.0231531156622582E+00    1.0877422173624108E+01    6.9552345718248665E-01
H    1.2245604721037597E+00    9.9223472628735720E+00   -1.2457952377919590E-01
O    9.9252060901883414E+00    6.8983872150173804E+00    9.1504329586694011E-01
H    9.3827159405071985E+00    6.4483647402710407E+00    2.9609669178948350E-01
H    9.8508540749953397E+00    7.8744667422136772E+00    7.3934211653211979E-01
O    5.4400037135479149E+00    1.1069353541802593E+01    5.8196183863993998E+00
H    4.5534100049378408E+00    1.0787131577209175E+01    5.5576696815721931E+00
H    5.4069821489383783E+00    1.1288865635991263E+01    6.7542896435333235E+00
O    5.3328428449370504E+00    2.7834100843435006E-01    1.1794553785909418E+00
H    5.0393421656327266E+00    6.2316672841966103E-01    3.3732534879908860E-01
H    5.8077173112078784E+00    9.2009797079142985E-01    1.6777171023102271E+00
O    2.1160300039209279E+00    8.8653202458781664E+00    8.9008845572396531E+00
H    1.8851575282523221E+00    7.9494999418690222E+00    8.7611153708710088E+00
H    1.3116302006197520E+00    9.3407346095351738E+00    8.9666271481254842E+00
O    2.1265426345441392E+00    6.0452058152100312E+00    8.5052598837432001E+00
H    2.9645671315622817E+00    5.6436270967466733E+00    8.3848117227660186E+00
H    1.5678115301094775E+00    5.6964306631079848E+00    7.8085647719930549E+00
O    6.9344491787007732E+00    1.0423442665421749E+01    1.3086284128534071E+01
H    6.4317093346391303E+00    1.1235328682557455E+01    1.3240163999030685E+01
H    6.8817814644003681E+00    1.0216134193674726E+01    1.2134766741104668E+01
O    7.6171229550579937E+00    9.4936210739236309E+00    1.0159669127371865E+01
H    8.3020839747473083E+00    8.8143706443958916E+00    1.0235337611200210E+01
H    8.0604608678837444E+00    1.0323405239958783E+01    9.9806174784942048E+00
O    2.3893727978778836E+00   -7.5971521049039800E-02    9.0236094863584206E+00
H    3.0724279244001251E+00   -4.4243810226225561E-01    9.5907030855498370E+00
H    2.8587070124710672E+00    7.1963033398009513E-01    8.7756928739872517E+00
O    6.3994551704954574E+00    8.1003170815525323E+00    2.3073083641474432E+00
H    5.6592946666002018E+00    8.4441472009124254E+00    2.7586782271843737E+00
H    6.7453686249673721E+00    8.8214666659655485E+00    1.7850639767232017E+00
O    2.1262711334760676E+00    2.4223465682870939E+00    1.1340316889224091E+01
H    1.8305125488879839E+00    3.3798871570074747E+00    1.1318716257471229E+01
H    1.4983728175865871E+00    1.9113947772211890E+00    1.0820551144920588E+01
O    1.0848905766125966E+01    8.4308331283725432E-02    5.2900160521802899E+00
H    1.1079756401142445E+01    9.5419577496856178E-01    4.9816548539705856E+00
H    1.0584728903906603E+01   -3.6219390376644911E-01    4.4800253529291707E+00
O    6.4900653485419575E+00    1.2809017519647379E+00    7.6338141003378617E+00
H    6.9295625706381152E+00    4.4627122127907387E-01    7.6572175282384531E+00
H    6.9021908462368753E+00    1.8927523277823843E+00    8.2651844346807941E+00
O    8.3643919822376471E+00    7.5308130677069025E+00    7.4471219075644335E+00
H    7.7864303292030526E+00    7.9697513822714052E+00    6.8027878970063274E+00
H    8.4854853148094396E+00    8.1174141936271358E+00    8.1670248831493719E+00
O    6.9840386969899075E+00    8.7441455111386794E+00    5.4127155093530241E+00
H    6.5681972170661522E+00    9.5781057936316731E+00    5.6937787539025564E+00
H    6.3015308288014378E+00    8.0692824067846267E+00    5.2306054193372287E+00
O    1.1691488094445541E+01    1.0489846217422413E+01    1.1606346394636949E+01
H    1.1368881446551280E+01    1.0580934532801724E+01    1.2526624698172954E+01
H    1.1309644389908845E+01    9.6192299191012580E+00    1.1399366381709433E+01
O    3.4113396345076028E+00    7.8651111336275301E+00    2.5986303437400760E+00
H    3.3359743112124445E+00    8.8049424806881955E+00    2.6323696446286888E+00
H    3.5382718544178333E+00    7.5540288785764869E+00    1.6763128293993315E+00
O    1.0054875172892281E+00    6.6330022719764248E+00    2.8532575723288249E+00
H    1.2918376123769961E+00    5.9251271260360632E+00    3.4652026543683387E+00
H    1.8113953681229240E+00    7.1785437023013383E+00    2.8320204004924308E+00
O    1.9207860712111517E+00    1.1422023880650203E+01    5.8736145257468770E+00
H    1.5449861703100225E+00    1.0636313157350450E+01    5.4348617184888957E+00
H    2.1229408364511433E+00    1.1101462019500401E+01    6.7807250786711757E+00
O    1.0375186017666884E+01    7.9437562831790638E+00    9.8602347151482714E+00
H    1.0349538787051115E+01    6.9797595558716283E+00    9.9523881073188303E+00
H    1.0757665296905163E+01    8.1281421081987215E+00    9.0216503839444577E+00
O    1.5672592092945465E+00    1.6766457033224049E+00    4.8654526610005968E+00
H    7.0149021745479856E-01    1.9538414265185828E+00    5.0233202325876709E+00
H    1.7826034958008292E+00    8.0827773939599945E-01    5.2020795248332412E+00
O    7.4636893244943741E+00    4.5789895731600412E+00    5.6201518113143250E+00
H    8.0582435251307132E+00    5.3190262261887744E+00    5.5387013455775449E+00
H    7.0319200059562990E+00    4.3971750932229199E+00    4.7745814563183311E+00
O    7.5440764424040108E+00    2.2598409219554862E+00    1.2502571443916130E+01
H    7.9848142632123844E+00    2.4827871656048823E+00    1.3310003073728177E+01
H    6.5963218339941871E+00    2.3554539631552709E+00    1.2672263371708436E+01
O    2.7174278026181655E+00    4.5042176380519514E+00    4.0046363589979128E+00
H    2.6584305575335661E+00    3.6380685707971088E+00    4.4280045969607649E+00
H    3.4212863924601913E+00    4.9445602863794900E+00    4.4295626572448850E+00
     &END COORD
     &VELOCITY
          -9.4737716875717369E-05    1.5749593565405470E-04    8.3009388695462689E-05
           9.2881466420564017E-04    3.4789168669090457E-04    1.5420574855221489E-03
           6.3168934466706328E-04    4.9478532767476089E-04    1.2044180190776652E-04
           1.9693342003041536E-04    2.3971881311948212E-05   -2.4297985150329449E-04
          -8.5609652620894359E-04   -9.2305988178814527E-04   -3.8546426793675610E-05
           5.6790942565947003E-04   -1.2856454675915516E-04    9.2358497089306730E-04
           2.2324759769307278E-04   -1.6412805819331875E-04   -1.6389610769740250E-04
          -1.1556746578300265E-03   -1.0760257994926704E-03    2.3160521871855598E-04
           2.6885110585770424E-04    2.1790308953456911E-04   -1.7938146007285855E-03
           1.5059343477857691E-04   -3.3551348894108181E-04    1.9902199597998252E-05
           4.3944817765399535E-04   -2.4891878961413400E-04    8.4989924939702385E-04
          -8.8608670994972977E-04   -1.0416145078362524E-03    1.5052857396188339E-03
          -1.6183261732473182E-04    2.3630558378238204E-05    4.1998818427524284E-04
           7.6920129263084291E-04   -6.3838221755052279E-04   -6.2232146365608163E-04
          -1.1975231635333941E-04    3.7566426088576652E-05   -9.8863425007598461E-04
           2.6014063089275911E-04   -9.7678578344494822E-05   -2.0308445923858138E-04
          -8.2970862588205101E-04   -1.0911526718602063E-03    1.1069631024207616E-03
          -6.5946126949686826E-04    1.9417914082699641E-04    4.2473644694183754E-04
           2.0331048740705439E-04    1.5206460599846242E-04   -2.9972842395151330E-04
           5.6922035619332782E-04   -1.2408153392095644E-03   -2.7741121323952481E-04
          -8.8817551642193955E-04    4.9637786762918193E-04    3.4077379180781240E-04
           4.2003737779237866E-04    1.1004152426676506E-04   -2.0675273054687602E-04
          -1.9497666979566622E-04    1.4045447107574997E-05   -6.6535423621420233E-04
           4.5803575845013080E-04    1.8165228345535960E-03    8.9964093613535527E-04
          -1.6465935665414865E-04   -3.2529802659030457E-04   -2.8348934892592087E-04
           9.1449520573692595E-04    6.6083732759931785E-04   -8.9347069068182125E-04
          -7.1063926807455691E-04    7.1027911009943138E-04   -6.9020861093555908E-04
          -9.1068466707465551E-05    6.3502655762256267E-05    1.3364019104427431E-04
          -4.0934013094415359E-04    2.3824204485778261E-04    2.7528168922652047E-04
          -9.7609516105299978E-04    2.1552433071034364E-04    1.2169742454803873E-04
           1.3975582825213108E-04   -3.9717991450288336E-05   -3.1381874075296080E-05
          -8.3534891313228352E-04   -1.9284395480765438E-04    5.4092119859359269E-06
          -4.6073112231893111E-04   -5.9183802825826291E-05    7.7688577375051695E-04
           1.5816772468560516E-04    9.3089265724783759E-05    5.5730749276536242E-06
           1.2517818520860788E-03    8.1028917243098774E-04   -9.3423023803298685E-04
           7.6541432686480276E-04    1.8003816302339856E-04   -4.1869004506945115E-04
          -2.3946160395052062E-04    1.8349302344194249E-04    8.1192821671488436E-05
           2.6626105170317153E-04   -6.8349547515077615E-04   -2.2280690754624652E-04
           9.6888638763432326E-04   -5.4097096409546784E-04   -1.4250547069766242E-03
           1.1525595626925155E-04    1.2160966184402705E-04   -5.7602967990160077E-04
           3.6236886002435800E-04    5.0039125568010970E-07   -6.2849870743362981E-04
          -3.9470166261760056E-04    2.0904716828136486E-04    8.5753953121259587E-04
           2.9060941931964557E-04    4.5764173663379295E-05   -2.0679606883661005E-04
          -5.5450630938715634E-05    2.8460472750530577E-04    1.3301808686358178E-04
           3.8483268998044137E-04   -3.6423913018943522E-04   -1.2720703853532315E-03
          -1.4737644198200753E-04   -4.9813518080628683E-05   -2.7970908758293570E-04
           3.0302835405838537E-04    5.1426208943912768E-05    1.8757790171066247E-03
          -2.2555712117293647E-04    1.0327320172359039E-04   -1.3541206102755615E-03
          -3.2237602104364695E-05    3.4882081886908637E-04    2.3470088127361096E-04
          -1.4194044502392441E-05   -1.2605465885046191E-03   -5.7169157009664745E-04
           7.9890954664223293E-05    2.6525010848198064E-04    1.0208218054623918E-03
           8.2958118052894474E-05    4.4358901498598825E-05    1.6326419983067108E-05
          -1.2308870003263617E-04   -7.7601056946382315E-04    1.1336317065488246E-03
          -1.6661365520250712E-03   -7.7130626929566750E-04   -2.1644709959633108E-04
          -1.0172691545265304E-04    8.2610164818348053E-05    1.5634457214092981E-04
           2.3269434070167776E-04   -1.0614005866548992E-04    5.6223396462297219E-04
          -1.2513121368187570E-05   -8.9257325218595833E-04   -2.5275829956074715E-04
           4.5085559219314593E-05   -1.5684065788529840E-04    7.5072463223447436E-05
          -3.8658972526795193E-04   -4.7530095985604079E-04   -5.9147753212713053E-04
           5.9049719702482970E-05    2.7853607161936036E-04   -7.4501418639984793E-04
           3.6815649396362428E-05   -2.9006712278465351E-04    3.8907730673753224E-05
           1.0996956773312984E-03    3.0055972608852952E-04   -6.2558477303590015E-04
           5.9016178643657013E-04    1.0591637730270594E-03    1.9926975962476288E-04
           4.3789653598160617E-05   -2.6341558715801371E-05    2.7351454818409218E-04
          -1.4135961237409960E-03   -4.6339677551665581E-04   -1.3429702320277620E-03
           5.5355428819195732E-04   -3.6257989144701866E-04   -7.2053089450956477E-04
          -1.1645864019721894E-04    2.5006359696355045E-04   -1.3216537685104294E-04
           2.5229423873004752E-04    1.0648015342227147E-03   -9.8883349754443989E-05
           1.7769781966317023E-03   -2.2566024406939044E-04    8.4339411086730679E-04
           1.8471175638050019E-05    3.2067441697470044E-04   -1.2628134024596317E-05
          -4.0642930257908151E-04    1.2644377881270291E-03   -6.5809581836251852E-04
           1.2734848842555955E-03    7.9060358619736384E-04   -1.3449222377945351E-03
          -2.9081018608406636E-04   -2.1835546119019413E-04    3.0881779517164994E-05
           8.2921921010278247E-04   -2.8347349279405970E-04   -1.7990634572720368E-05
          -3.4279332386362413E-05   -8.4358049849433199E-04   -5.2246104701682695E-04
          -3.6178675680260045E-05    2.4151652741989318E-04    3.2334897669335536E-04
          -3.8136406304945214E-04    6.5422672209658445E-05   -7.5559608361053341E-04
           1.8195260201450789E-03   -1.0055634486842702E-03    3.9459747429607827E-04
           2.6684196680548271E-04    1.7017118119724359E-04   -4.5128207025516893E-05
          -2.9479093208974438E-04    9.6302189702496667E-04   -7.7457224290241840E-04
           2.5005613665447340E-04    6.0277720482379104E-04   -4.4307458341308570E-04
          -1.8051768264007188E-05   -2.5079459953370491E-05   -2.5512145471632603E-04
           2.0064796886484883E-05   -5.6169016778516250E-04   -2.3582456434152814E-04
           4.2592909040823364E-05   -4.1380696748308863E-05   -7.8366492093748545E-04
           6.1140688944480635E-05   -6.9565138990367679E-05   -1.9370271262293107E-04
          -8.4200056603381647E-04    1.0509330653431465E-04   -7.0840081902953081E-04
           1.3509085881297463E-03   -5.5603895221848279E-04   -5.9579305081695032E-04
           6.7470752934336938E-05   -2.8889464575091405E-04   -2.5244086128430163E-04
          -5.8909002219064972E-04   -6.1970423265166275E-05   -2.2591186488669354E-04
           1.5538240582810582E-03    5.5734012005394956E-04    1.1809518615378807E-03
          -8.1560066604290102E-05    1.0071849997745943E-05   -8.8800551500815993E-05
          -6.1380325350145692E-04    2.4767378849771852E-04   -3.4030400599103909E-05
          -4.3198748385107178E-04    8.4137093577790582E-04    1.7156739365803045E-04
           3.9108940250970757E-05    8.8884904468305425E-05   -2.4078968633856113E-05
          -6.1626812574819235E-04    9.3135089074024378E-04   -3.1708678105101451E-05
           5.7579386092760699E-04    4.4647716373866865E-04   -6.8945124844811651E-05
           2.6113350882228702E-04   -1.4072947672787548E-06    1.5055931455440822E-04
          -4.5250763664535039E-05   -4.7003308668485929E-04   -4.3622849695702657E-04
           3.6265660423378003E-04   -5.1996397149848227E-04   -1.2002728934201931E-03
           1.2538165227772311E-04    3.9588767999403427E-04   -1.3077560086977410E-04
          -7.5146902053290941E-04   -6.1022807252554621E-04   -1.8159391280374990E-04
           3.2965917450855452E-04    5.6320037858533401E-04   -1.4646965212645271E-03
          -3.0258923372235779E-04    1.8912308857671982E-04   -2.1741571049968268E-04
           1.4877832249955743E-04    1.0718610492812418E-03    1.1478220174033621E-03
           9.2826233762295120E-04   -2.7974195704687758E-04    7.8572752971754181E-05
          -2.2577435005751378E-04    2.9948914609830669E-04    8.5193647464629527E-05
           7.6258937825166961E-04   -7.7229107226148329E-04    1.9294574484639510E-03
          -1.1543814977368423E-03    7.6694739451195915E-04    6.9952467496893435E-04
           1.4088322658733178E-04    2.8421049767385397E-04    4.8635949292075839E-05
           5.9482310122389642E-04    5.7714457973354874E-04   -4.9444354591394004E-04
           7.8017551137306111E-04    5.5023365351647034E-04    1.3618864456441115E-04
          -3.4330092082269299E-04   -2.2973016792686307E-04   -1.5326516821718172E-04
          -3.8538166265348836E-04   -4.9987580647574891E-04    1.2182547765213294E-05
           2.8882948800170691E-04    1.1208839044027092E-04    4.4044166049854401E-04
           9.0745707902876237E-05    4.8939552951600971E-05    6.4441247327254341E-05
          -1.9452481594241006E-04   -3.5714944950812269E-04   -1.0454279407044271E-03
           7.5899530617700795E-04   -7.5899082306592691E-04   -1.7569471869775122E-04
          -1.2206103859993942E-04    6.3144747575016326E-05    3.3666367269303210E-04
          -9.8880215776407147E-05   -1.3441482661584183E-03    2.7392569055405546E-04